
Gurobi 10.0.3 (linux64, gurobi_cl) logging started Thu Nov  2 11:34:09 2023

Set parameter Username
Set parameter TimeLimit to value 3600
Set parameter LogFile to value "RCPSP_443.log"
Set parameter Threads to value 32
Academic license - for non-commercial use only - expires 2024-10-30
Using license file /home/jrivera6/gurobi-licenses/v1003/compute-0-38/gurobi.lic

Gurobi Optimizer version 10.0.3 build v10.0.3rc0 (linux64)
Copyright (c) 2023, Gurobi Optimization, LLC

Read MPS format model from file RCPSP_443.mps
Reading time = 0.01 seconds
RCPSP_443: 5349 rows, 2080 columns, 18893 nonzeros

CPU model: Intel(R) Xeon(R) Gold 6242 CPU @ 2.80GHz, instruction set [SSE2|AVX|AVX2|AVX512]
Thread count: 32 physical cores, 32 logical processors, using up to 32 threads

Optimize a model with 5349 rows, 2080 columns and 18893 nonzeros
Model fingerprint: 0xf658d63b
Variable types: 32 continuous, 2048 integer (2048 binary)
Coefficient statistics:
  Matrix range     [1e+00, 2e+02]
  Objective range  [1e+00, 1e+00]
  Bounds range     [1e+00, 1e+00]
  RHS range        [1e+00, 2e+02]
Presolve removed 4010 rows and 1606 columns
Presolve time: 0.13s
Presolved: 1339 rows, 474 columns, 4192 nonzeros
Variable types: 31 continuous, 443 integer (443 binary)

Root relaxation: objective 6.200000e+01, 165 iterations, 0.00 seconds (0.00 work units)

    Nodes    |    Current Node    |     Objective Bounds      |     Work
 Expl Unexpl |  Obj  Depth IntInf | Incumbent    BestBd   Gap | It/Node Time

     0     0   62.00000    0   24          -   62.00000      -     -    0s
     0     0   69.00000    0   21          -   69.00000      -     -    0s
     0     0   69.00000    0   45          -   69.00000      -     -    0s
     0     0   69.00000    0   45          -   69.00000      -     -    0s
H    0     0                     108.0000000   69.19024  35.9%     -    0s
     0     0   72.00000    0   23  108.00000   72.00000  33.3%     -    0s
     0     0   75.43654    0   23  108.00000   75.43654  30.2%     -    0s
     0     0   75.43654    0   54  108.00000   75.43654  30.2%     -    0s
     0     0   75.43654    0   71  108.00000   75.43654  30.2%     -    0s
     0     0   75.43654    0   66  108.00000   75.43654  30.2%     -    0s
     0     0   75.43654    0   66  108.00000   75.43654  30.2%     -    0s
H    0     0                     106.0000000   75.43654  28.8%     -    0s
     0     0   75.43654    0   56  106.00000   75.43654  28.8%     -    0s
     0     0   75.43654    0   42  106.00000   75.43654  28.8%     -    0s
     0     0   75.43654    0   55  106.00000   75.43654  28.8%     -    1s
     0     0   75.43654    0   50  106.00000   75.43654  28.8%     -    1s
     0     0   75.43654    0   60  106.00000   75.43654  28.8%     -    1s
     0     0   75.43654    0   68  106.00000   75.43654  28.8%     -    1s
     0     0   75.43654    0   66  106.00000   75.43654  28.8%     -    1s
     0     0   75.43654    0   70  106.00000   75.43654  28.8%     -    1s
     0     0   75.43654    0   70  106.00000   75.43654  28.8%     -    1s
     0     0   75.43654    0   69  106.00000   75.43654  28.8%     -    1s
     0     0   75.43654    0   69  106.00000   75.43654  28.8%     -    1s
     0     0   75.43654    0   64  106.00000   75.43654  28.8%     -    1s
     0     0   75.43654    0   72  106.00000   75.43654  28.8%     -    1s
     0     0   75.43654    0   74  106.00000   75.43654  28.8%     -    1s
     0     0   75.43654    0   73  106.00000   75.43654  28.8%     -    1s
     0     0   75.43654    0   71  106.00000   75.43654  28.8%     -    1s
     0     0   75.43654    0   78  106.00000   75.43654  28.8%     -    1s
     0     0   75.43654    0   75  106.00000   75.43654  28.8%     -    1s
     0     0   75.43654    0   74  106.00000   75.43654  28.8%     -    1s
     0     0   75.43654    0   70  106.00000   75.43654  28.8%     -    1s
     0     0   75.43654    0   81  106.00000   75.43654  28.8%     -    1s
     0     0   75.43654    0   75  106.00000   75.43654  28.8%     -    2s
     0     0   75.43654    0   69  106.00000   75.43654  28.8%     -    2s
     0     0   75.43654    0   65  106.00000   75.43654  28.8%     -    2s
     0     0   75.43654    0   63  106.00000   75.43654  28.8%     -    2s
     0     0   75.43654    0   63  106.00000   75.43654  28.8%     -    2s
H    0     0                     105.0000000   75.43654  28.2%     -    2s
     0     0   75.43654    0   71  105.00000   75.43654  28.2%     -    2s
     0     0   75.43654    0   63  105.00000   75.43654  28.2%     -    2s
     0     0   75.43654    0   64  105.00000   75.43654  28.2%     -    2s
     0     0   75.43654    0   84  105.00000   75.43654  28.2%     -    2s
     0     0   75.43654    0   66  105.00000   75.43654  28.2%     -    2s
H    0     0                     104.0000000   75.43654  27.5%     -    2s
     0     0   75.43654    0   61  104.00000   75.43654  27.5%     -    2s
     0     0   75.43654    0   59  104.00000   75.43654  27.5%     -    2s
     0     0   75.43654    0   50  104.00000   75.43654  27.5%     -    2s
     0     0   75.43654    0   49  104.00000   75.43654  27.5%     -    2s
     0     0   75.43654    0   55  104.00000   75.43654  27.5%     -    2s
     0     0   75.43654    0   72  104.00000   75.43654  27.5%     -    2s
     0     0   75.43654    0   28  104.00000   75.43654  27.5%     -    2s
     0     0   75.43654    0   61  104.00000   75.43654  27.5%     -    2s
     0     0   75.43654    0   38  104.00000   75.43654  27.5%     -    2s
     0     0   75.43654    0   38  104.00000   75.43654  27.5%     -    3s
H    0     0                     102.0000000   75.43654  26.0%     -    3s
     0     2   75.43654    0   17  102.00000   75.43654  26.0%     -    3s
    24    40   82.89262    5   63  102.00000   77.57146  23.9%   152    5s
H   55    69                     102.0000000   78.00000  23.5%   127    5s
   687   564   99.00000   20   33  102.00000   78.00000  23.5%  35.3   17s
H  688   564                     100.0000000   78.00000  22.0%  35.2   17s
H  689   564                      98.0000000   78.00000  20.4%  35.2   17s
H  704   564                      98.0000000   78.00000  20.4%  34.9   17s
   724   560     cutoff   20        98.00000   78.11305  20.3%  35.0   32s
H  731   560                      96.0000000   78.14776  18.6%  35.0   32s
H  767   560                      94.0000000   81.43654  13.4%  35.0   32s
H  769   560                      92.0000000   81.43654  11.5%  35.1   32s
H  787   560                      92.0000000   81.43654  11.5%  34.7   32s
  2029   472   85.43654    8   32   92.00000   83.41476  9.33%  27.8   35s

Cutting planes:
  Gomory: 9
  Cover: 19
  Implied bound: 227
  MIR: 562
  StrongCG: 2
  Inf proof: 30
  Zero half: 6
  RLT: 109
  Relax-and-lift: 100

Explored 2984 nodes (77080 simplex iterations) in 38.40 seconds (1.89 work units)
Thread count was 32 (of 32 available processors)

Solution count 10: 92 92 94 ... 104

Optimal solution found (tolerance 1.00e-04)
Best objective 9.199999999070e+01, best bound 9.199999999070e+01, gap 0.0000%

Wrote result file 'RCPSP_443.sol'

